# HZ S RI R 50
1000000 -1.016530842105263 0.005465789473684211
44989999 -0.867111842105263 0.4386506315789473
88979998 -0.5922303684210526 0.7569195789473682
132969997 -0.22282905263157893 0.9316281578947366
176959996 0.18051005263157896 0.9387211578947369
220949995 0.5501343157894736 0.781322842105263
264939994 0.8241044210526317 0.4832062105263158
308929993 0.9505733684210528 0.08416647368421051
352919992 0.8866242105263157 -0.3422246315789473
396909991 0.6268619999999998 -0.7099945789473683
440899990 0.21263673684210527 -0.9156662631578947
484889989 -0.25341215789473676 -0.9000446842105263
528879988 -0.6495962105263158 -0.6686020526315788
572869987 -0.8856085263157893 -0.2952471052631579
616859986 -0.9266078947368421 0.11354084210526315
660849985 -0.8015195263157894 0.4825837368421053
704839984 -0.559061052631579 0.7508725263157895
748829983 -0.2491166842105263 0.9044175789473684
792819982 0.09006121052631579 0.9311177368421053
836809981 0.4166975789473684 0.8340568947368421
880799980 0.6963064210526316 0.6106360000000001
924789979 0.8729069999999999 0.2751773157894737
968779978 0.890408894736842 -0.13948810526315786
1012769977 0.692739105263158 -0.553178052631579
1056759976 0.286310894736842 -0.8278582105263159
1100749975 -0.22584931578947362 -0.8449712631578947
1144739974 -0.6534299473684211 -0.5878585263157895
1188729973 -0.8751174210526315 -0.1786695789473684
1232719972 -0.8764684736842104 0.2377482631578947
1276709971 -0.7142205789473685 0.5750257368421053
1320699970 -0.4614311578947368 0.796987157894737
1364689969 -0.1689521052631579 0.9075093157894737
1408679968 0.13761573684210526 0.9150781052631578
1452669967 0.42802999999999997 0.8127972631578947
1496659966 0.6763856842105264 0.5985926842105264
1540649965 0.8433003157894738 0.27009299999999997
1584639964 0.8422848947368422 -0.15494794736842105
1628629963 0.5862602631578947 -0.5795225789473684
1672619962 0.07925600000000001 -0.7955352105263157
1716609961 -0.4802954210526315 -0.6385636842105261
1760599960 -0.7953985789473682 -0.20168599999999998
1804589959 -0.7958392105263158 0.27380394736842106
1848579958 -0.5930319473684209 0.6203846315789474
1892569957 -0.2901364736842105 0.8148706315789472
1936559956 0.047255052631578955 0.8446912105263158
1980549955 0.35297131578947366 0.7134034736842105
2024539954 0.5620266842105263 0.4112110526315789
2068529953 0.4908622631578948 -0.01232421052631579
2112519952 0.03731736842105263 -0.19954047368421055
2156509951 -0.2791105263157894 0.15538826315789475
2200499950 -0.12059163157894738 0.49177831578947356
2244489949 0.18672052631578948 0.5559884736842104
2288479948 0.4470461052631578 0.3896517368421053
2332469947 0.5451786315789472 0.06364505263157892
2376459946 0.36379273684210517 -0.3098323157894736
2420449945 -0.07759257894736843 -0.4582074736842106
2464439944 -0.5116144210526314 -0.22881757894736837
2508429943 -0.6437076842105263 0.19169268421052627
2552419942 -0.5352644210526316 0.5449027894736841
2596409941 -0.3109743157894736 0.7461275789473685
2640399940 -0.04789726315789475 0.8373201052631579
2684389939 0.20841442105263158 0.8256047368421052
2728379938 0.4409782105263158 0.7132767368421051
2772369937 0.6461056842105263 0.5186325789473685
2816359936 0.7604082631578947 0.21824615789473686
2860349935 0.7103461578947368 -0.17426721052631577
2904339934 0.4014935263157895 -0.5136572105263157
2948329933 -0.12376105263157894 -0.5807977894736841
2992319932 -0.5517414210526315 -0.27564647368421047
3036309931 -0.6648198947368419 0.16738705263157894
3080299930 -0.5382425263157894 0.5261821578947367
3124289929 -0.3087355263157894 0.744667947368421
3168279928 -0.054607842105263156 0.8397115789473683
3212269927 0.2078839473684211 0.8362465789473682
3256259926 0.4334007368421053 0.7435005263157896
3300249925 0.6248879999999999 0.582276894736842
3344239924 0.7446371052631577 0.3414601052631579
3388229923 0.7742043684210526 0.023012421052631574
3432219922 0.6226833684210529 -0.3260266315789474
3476209921 0.21623789473684207 -0.5778020526315788
3520199920 -0.31306389473684215 -0.4879348947368421
3564189919 -0.6330366842105263 -0.05409436842105263
3608179918 -0.5931776315789474 0.41112552631578936
3652169917 -0.36926800000000004 0.6885837368421053
3696159916 -0.09964915789473686 0.8373509999999997
3740149915 0.15741605263157896 0.8531189999999998
3784139914 0.3792407894736843 0.8004065263157896
3828129913 0.5758368947368421 0.6721555263157895
3872119912 0.7135965263157894 0.5267617894736841
3916109911 0.7926176315789473 0.29794342105263155
3960099910 0.8084312631578947 0.04010668421052632
4004089909 0.7024557368421052 -0.26721268421052624
4048079908 0.37216478947368414 -0.542403894736842
4092069907 -0.15715305263157892 -0.5328271578947368
4136059906 -0.5337932105263158 -0.08591199999999999
4180049905 -0.49426152631578946 0.42037299999999994
4224039904 -0.22606931578947367 0.6731973157894736
4268029903 0.017270947368421056 0.7805367368421052
4312019902 0.2556691052631579 0.8053065789473682
4356009901 0.41026468421052625 0.730922
4399999900 0.5471097368421052 0.6609131578947369
