# HZ S RI R 50
2000000000 0.3367616315789474 0.7020637368421053
2004999998 0.3661371578947369 0.6807359999999999
2009999996 0.39629089473684204 0.6499932631578949
2014999994 0.4218252631578948 0.6115472105263159
2019999992 0.44356557894736837 0.5801506842105263
2024999990 0.47309526315789474 0.5390814736842103
2029999988 0.4860073157894737 0.5081355263157894
2034999986 0.5031088421052631 0.4632169473684211
2039999984 0.5146793157894737 0.42107873684210534
2044999982 0.526889894736842 0.37139515789473676
2049999980 0.5340125263157893 0.3194696315789473
2054999978 0.5300956315789473 0.27171415789473685
2059999976 0.5239036315789473 0.2194327894736842
2064999974 0.5154047368421053 0.16478668421052628
2069999972 0.4961171052631578 0.11785068421052629
2074999970 0.4713062105263157 0.06644884210526315
2079999968 0.4431171578947368 0.01839357894736842
2084999966 0.40565468421052636 -0.02554352631578947
2089999964 0.35944536842105257 -0.06679700000000001
2094999962 0.3115664210526316 -0.1012768947368421
2099999960 0.25735442105263157 -0.12918673684210524
2104999958 0.2025224736842105 -0.15083731578947368
2109999956 0.14002826315789474 -0.16295163157894738
2114999954 0.07483415789473684 -0.16549600000000003
2119999952 0.012918842105263159 -0.15678110526315786
2124999950 -0.04191421052631579 -0.1414706842105263
2129999948 -0.10223542105263157 -0.11789105263157895
2134999946 -0.15101915789473683 -0.08330915789473685
2139999944 -0.19550589473684213 -0.0442828947368421
2144999942 -0.22778942105263153 -0.0006574736842105263
2149999940 -0.26073336842105266 0.041329526315789476
2154999938 -0.28574321052631574 0.0907655789473684
2159999936 -0.298166947368421 0.14283652631578947
2164999934 -0.3063265789473684 0.19068031578947373
2169999932 -0.30229126315789473 0.2421357368421053
2174999930 -0.3018973684210526 0.28504478947368417
2179999928 -0.29091210526315786 0.3273024736842105
2184999926 -0.2716005263157895 0.37009852631578943
2189999924 -0.2557796842105263 0.40761010526315783
2194999922 -0.2330401052631579 0.438215
2199999920 -0.21435605263157892 0.47022015789473676
2204999918 -0.19108215789473687 0.4961284210526316
2209999916 -0.16012815789473686 0.5243795263157895
2214999914 -0.12870105263157894 0.5457007894736843
2219999912 -0.09607736842105263 0.5662185263157895
2224999910 -0.06620078947368421 0.580256105263158
2229999908 -0.03460131578947369 0.5921121052631578
2234999906 0.0011129999999999998 0.5977253157894737
2239999904 0.03284621052631578 0.6024859473684209
2244999902 0.06335168421052632 0.6018371578947368
2249999900 0.10452031578947367 0.6023026315789474
2254999898 0.12810478947368423 0.6039705263157895
2259999896 0.1605381052631579 0.5982942631578947
2264999894 0.20325947368421052 0.5954651578947369
2269999892 0.23266910526315784 0.5802776842105264
2274999890 0.25875468421052633 0.5665368421052631
2279999888 0.29456126315789466 0.5465135263157894
2284999886 0.3252606842105263 0.533624052631579
2289999884 0.35294247368421044 0.5119391578947368
2294999882 0.38493921052631574 0.48982399999999987
2299999880 0.4088511052631579 0.46148905263157886
2304999878 0.42956563157894734 0.42896742105263164
2309999876 0.451436105263158 0.40149121052631564
2314999874 0.4713811578947368 0.36516005263157897
2319999872 0.4888676315789474 0.33316099999999993
2324999870 0.504983842105263 0.301038947368421
2329999868 0.5184267368421053 0.26049284210526313
2334999866 0.5250090526315788 0.21470789473684207
2339999864 0.535861736842105 0.17911421052631576
2344999862 0.5362611578947368 0.1272052105263158
2349999860 0.5389721578947368 0.0831287894736842
2354999858 0.5288976842105262 0.03551731578947368
2359999856 0.5210356315789474 -0.011331052631578947
2364999854 0.5102806842105263 -0.052799631578947376
2369999852 0.4870081052631579 -0.10130252631578948
2374999850 0.47068921052631585 -0.1393810526315789
2379999848 0.4434827894736842 -0.18855894736842105
2384999846 0.41644763157894726 -0.22325905263157889
2389999844 0.37686431578947366 -0.27508542105263156
2394999842 0.33655100000000004 -0.31532673684210527
2399999840 0.29726347368421047 -0.34598663157894727
2404999838 0.24616005263157895 -0.3754617368421053
2409999836 0.19643157894736837 -0.39815105263157885
2414999834 0.1419538947368421 -0.424366
2419999832 0.08493452631578946 -0.44370821052631576
2424999830 0.028060526315789473 -0.44915599999999994
2429999828 -0.03246010526315789 -0.4632914736842106
2434999826 -0.0916096842105263 -0.45504547368421056
2439999824 -0.1514847894736842 -0.4517810526315789
2444999822 -0.20684957894736838 -0.43740700000000005
2449999820 -0.2676656315789474 -0.42427389473684207
2454999818 -0.32354436842105266 -0.40156447368421044
2459999816 -0.37245084210526314 -0.37248026315789473
2464999814 -0.42441736842105254 -0.3445912105263158
2469999812 -0.4661841578947368 -0.3023211052631579
2474999810 -0.5108087368421053 -0.2621794210526316
2479999808 -0.5449526315789474 -0.22469752631578946
2484999806 -0.5805357894736841 -0.17620173684210527
2489999804 -0.6012166315789471 -0.12804505263157895
2494999802 -0.6263709473684211 -0.08742942105263156
2499999800 -0.6421633157894737 -0.035351210526315784
