# HZ S RI R 50
2000000000 0.6331303684210526 -0.0509197894736842
2004999998 0.5946546842105263 -0.11329531578947369
2009999996 0.5554336842105262 -0.17371789473684213
2014999994 0.5040771052631577 -0.22918242105263154
2019999992 0.4442898947368421 -0.27984510526315787
2024999990 0.37483457894736844 -0.32325173684210523
2029999988 0.30469021052631584 -0.3548194736842105
2034999986 0.22734015789473683 -0.3795626842105263
2039999984 0.15074947368421054 -0.39129489473684215
2044999982 0.06755068421052632 -0.3915612105263158
2049999980 -0.015367894736842106 -0.3847344736842105
2054999978 -0.09344473684210525 -0.36088342105263155
2059999976 -0.16782831578947371 -0.3251803684210526
2064999974 -0.23432031578947368 -0.28202310526315794
2069999972 -0.2958278421052631 -0.2316084736842105
2074999970 -0.34816678947368407 -0.17054884210526317
2079999968 -0.38715473684210516 -0.109668
2084999966 -0.4166485789473684 -0.04020978947368421
2089999964 -0.4404165789473684 0.03130010526315789
2094999962 -0.44834926315789464 0.0974794736842105
2099999960 -0.44854931578947366 0.16292884210526312
2104999958 -0.4382687368421054 0.2308201578947368
2109999956 -0.41742873684210535 0.28925152631578943
2114999954 -0.401072 0.3463665263157895
2119999952 -0.37235842105263156 0.3924908421052631
2124999950 -0.3363523157894736 0.43895089473684207
2129999948 -0.30699878947368425 0.47247405263157893
2134999946 -0.2627103157894737 0.5103292631578947
2139999944 -0.2188228947368421 0.5411493157894737
2144999942 -0.17094057894736842 0.5660059473684211
2149999940 -0.13697515789473683 0.5791742105263159
2154999938 -0.08690026315789474 0.5933773684210527
2159999936 -0.03950815789473684 0.6065571052631579
2164999934 0.007202947368421051 0.6082769473684211
2169999932 0.05749263157894738 0.6071373684210527
2174999930 0.0964024736842105 0.6057125789473684
2179999928 0.13849373684210528 0.5923678421052632
2184999926 0.18969457894736838 0.5750741052631579
2189999924 0.22581484210526315 0.5597771578947368
2194999922 0.271352 0.5335367368421052
2199999920 0.30523168421052627 0.5139034736842105
2204999918 0.339801052631579 0.4760084736842106
2209999916 0.3786313157894738 0.43964257894736836
2214999914 0.4087118421052632 0.39879121052631583
2219999912 0.43148705263157894 0.3574125789473684
2224999910 0.45434173684210516 0.3096000526315789
2229999908 0.46873768421052636 0.2591251578947368
2234999906 0.48097084210526303 0.2034038947368421
2239999904 0.4875651052631579 0.14913852631578944
2244999902 0.4826405789473685 0.0872735789473684
2249999900 0.4765024736842104 0.02380915789473684
2254999898 0.46014489473684217 -0.0323818947368421
2259999896 0.4409048421052632 -0.08749968421052631
2264999894 0.4121357894736842 -0.1458542631578947
2269999892 0.3688806315789473 -0.2037261578947368
2274999890 0.3255404736842105 -0.25092163157894737
2279999888 0.2712957894736842 -0.29121452631578953
2284999886 0.22186547368421045 -0.3303932631578947
2289999884 0.15436752631578948 -0.3630548421052631
2294999882 0.09062510526315791 -0.38422978947368425
2299999880 0.018992894736842104 -0.40365273684210523
2304999878 -0.0531156842105263 -0.4097099473684211
2309999876 -0.1234485789473684 -0.41143031578947364
2314999874 -0.19464505263157894 -0.39812089473684215
2319999872 -0.2607012105263157 -0.37935789473684206
2324999870 -0.31944173684210525 -0.35482857894736836
2329999868 -0.3790981578947367 -0.32364821052631576
2334999866 -0.436132894736842 -0.28348410526315787
2339999864 -0.4868293684210526 -0.24243278947368418
2344999862 -0.5306361578947367 -0.19344215789473682
2349999860 -0.5646003157894736 -0.14245357894736843
2354999858 -0.5957445263157894 -0.09536352631578948
2359999856 -0.6232387368421051 -0.04218615789473685
2364999854 -0.6428677894736841 0.005583684210526315
2369999852 -0.6516325789473684 0.06459284210526316
2374999850 -0.666196 0.11251884210526315
2379999848 -0.6713609999999999 0.1647875789473684
2384999846 -0.6702025263157894 0.21617684210526314
2389999844 -0.669577105263158 0.2536107368421053
2394999842 -0.663987 0.30004363157894737
2399999840 -0.6605394210526316 0.3473503157894737
2404999838 -0.6447157894736841 0.4008484736842105
2409999836 -0.6342174210526317 0.43786684210526317
2414999834 -0.6147853684210526 0.47953868421052626
2419999832 -0.5895604736842105 0.5146709473684209
2424999830 -0.5730022631578947 0.5489105789473685
2429999828 -0.5545833684210526 0.5806046315789474
2434999826 -0.542067052631579 0.6125803684210526
2439999824 -0.5136333684210524 0.6398865789473683
2444999822 -0.4856655789473684 0.6706951578947369
2449999820 -0.46246610526315796 0.6850065789473685
2454999818 -0.4328577368421052 0.7083175789473684
2459999816 -0.4045357894736841 0.738631947368421
2464999814 -0.38095736842105266 0.749942
2469999812 -0.3564846842105263 0.7766471578947368
2474999810 -0.3285877894736841 0.7849705263157896
2479999808 -0.3005972631578947 0.7836455263157894
2484999806 -0.28353789473684204 0.814874052631579
2489999804 -0.24715663157894735 0.8251242631578948
2494999802 -0.22137468421052628 0.8421954736842104
2499999800 -0.19432410526315788 0.8414271052631579
