# HZ S RI R 50
2000000000 0.5996905263157893 -0.057533421052631574
2004999998 0.5598464210526315 -0.12099936842105263
2009999996 0.5190212105263159 -0.18303773684210525
2014999994 0.4669635263157894 -0.24022647368421055
2019999992 0.4061096842105263 -0.2909086842105263
2024999990 0.3356362105263157 -0.3346881052631579
2029999988 0.26624363157894737 -0.3677395789473684
2034999986 0.18822126315789472 -0.39317494736842096
2039999984 0.1118117894736842 -0.40802963157894734
2044999982 0.027688894736842107 -0.41075731578947366
2049999980 -0.05439810526315788 -0.4060902105263159
2054999978 -0.13463036842105264 -0.38601189473684205
2059999976 -0.21054184210526317 -0.35379015789473683
2064999974 -0.28078315789473685 -0.31523657894736845
2069999972 -0.34469036842105266 -0.2713127894736842
2074999970 -0.40357868421052623 -0.2147081052631579
2079999968 -0.44771273684210533 -0.16108942105263158
2084999966 -0.4874056842105263 -0.09366263157894736
2089999964 -0.5200644210526315 -0.02721410526315789
2094999962 -0.5378123157894736 0.04018447368421052
2099999960 -0.5523158421052632 0.10496673684210527
2104999958 -0.5548277368421053 0.17317021052631576
2109999956 -0.5474536315789474 0.23578800000000003
2114999954 -0.5441696842105262 0.29824378947368424
2119999952 -0.5281574736842105 0.3513595263157894
2124999950 -0.5065349473684211 0.4056372631578947
2129999948 -0.4851691578947368 0.44833684210526314
2134999946 -0.45248984210526316 0.49989510526315795
2139999944 -0.4184444210526314 0.543191947368421
2144999942 -0.3830554210526315 0.5828971578947368
2149999940 -0.3536358947368421 0.6068616842105262
2154999938 -0.3146423684210526 0.6386056315789475
2159999936 -0.2737883684210526 0.6691590526315789
2164999934 -0.23458884210526315 0.6869650526315788
2169999932 -0.18833110526315786 0.7055331052631578
2174999930 -0.1586942105263158 0.722046
2179999928 -0.11696352631578946 0.7291350526315791
2184999926 -0.06509642105263155 0.7381147894736841
2189999924 -0.02973678947368421 0.7464328421052632
2194999922 0.017917052631578948 0.7457494210526316
2199999920 0.050415894736842104 0.7511642631578948
2204999918 0.09109226315789475 0.7394606315789474
2209999916 0.13869647368421048 0.7356023684210526
2214999914 0.17724494736842103 0.7260904736842105
2219999912 0.21390563157894735 0.7168501578947369
2224999910 0.25210236842105266 0.6992576315789474
2229999908 0.2889744210526316 0.6811417894736842
2234999906 0.3266642631578947 0.6565847368421052
2239999904 0.3598023684210526 0.6345355789473685
2244999902 0.3921608947368421 0.6027202631578947
2249999900 0.43179031578947363 0.5704774736842104
2254999898 0.45540163157894753 0.5434690000000001
2259999896 0.4830606315789473 0.5091257368421054
2264999894 0.5184226842105263 0.46724026315789474
2269999892 0.5363986842105263 0.421433947368421
2274999890 0.5490343684210527 0.3824147368421052
2279999888 0.5705224736842106 0.3254675263157895
2284999886 0.5828197368421052 0.28630289473684206
2289999884 0.5914991578947368 0.23014910526315782
2294999882 0.6008622631578947 0.1776796842105263
2299999880 0.5975345789473684 0.11412742105263159
2304999878 0.5900972105263157 0.058613684210526304
2309999876 0.5771204210526315 -0.005067421052631579
2314999874 0.5559018947368422 -0.06253452631578948
2319999872 0.5298247368421052 -0.12034678947368421
2324999870 0.5005381578947368 -0.17242636842105263
2329999868 0.46175526315789467 -0.22646342105263156
2334999866 0.4074009999999999 -0.2807668947368421
2339999864 0.361318 -0.32593478947368426
2344999862 0.30066894736842104 -0.3642967368421053
2349999860 0.23756747368421055 -0.3955916842105263
2354999858 0.17138942105263158 -0.423389
2359999856 0.1012782105263158 -0.44332236842105266
2364999854 0.03272157894736842 -0.4587762631578947
2369999852 -0.03978347368421052 -0.4548086315789473
2374999850 -0.10442394736842105 -0.44812615789473687
2379999848 -0.18472768421052635 -0.43837294736842103
2384999846 -0.24530652631578942 -0.41530700000000004
2389999844 -0.3128510526315789 -0.39370273684210527
2394999842 -0.37421921052631585 -0.3595245789473684
2399999840 -0.4308794210526316 -0.31405705263157896
2404999838 -0.4778278421052632 -0.2691275263157894
2409999836 -0.5159946315789473 -0.2205281052631579
2414999834 -0.5573718421052631 -0.16727668421052636
2419999832 -0.5867473684210527 -0.11145268421052631
2424999830 -0.6117989473684211 -0.05885810526315789
2429999828 -0.6364556842105265 -0.004785894736842105
2434999826 -0.6487602105263157 0.04590078947368421
2439999824 -0.6585732105263158 0.09855999999999998
2444999822 -0.662018894736842 0.1549583157894737
2449999820 -0.6642552631578948 0.20210873684210529
2454999818 -0.6569055789473685 0.2571949473684211
2459999816 -0.6517153684210526 0.301501894736842
2464999814 -0.643704789473684 0.3471392105263158
2469999812 -0.6329037368421053 0.39045199999999997
2474999810 -0.6171587368421051 0.4333687894736842
2479999808 -0.5944882631578947 0.464215947368421
2484999806 -0.5895189473684213 0.5110613157894738
2489999804 -0.5655167368421051 0.5442382105263159
2494999802 -0.5442470526315789 0.5790753157894736
2499999800 -0.5154800526315788 0.6045148947368422
