# HZ S RI R 50
2000000000 0.388521 -0.515828
2004999998 0.332406 -0.546804
2009999996 0.262091 -0.570294
2014999994 0.199283 -0.584312
2019999992 0.129336 -0.592215
2024999990 0.067331 -0.600048
2029999988 -0.012492 -0.59438
2034999986 -0.069931 -0.583128
2039999984 -0.146748 -0.565622
2044999982 -0.205538 -0.542511
2049999980 -0.273294 -0.510552
2054999978 -0.331645 -0.471256
2059999976 -0.380341 -0.433174
2064999974 -0.432717 -0.378649
2069999972 -0.477887 -0.330852
2074999970 -0.511047 -0.277069
2079999968 -0.534498 -0.225346
2084999966 -0.582554 -0.156166
2089999964 -0.581377 -0.105271
2094999962 -0.58753 -0.046296
2099999960 -0.594767 0.004981
2104999958 -0.592668 0.067383
2109999956 -0.585096 0.12426
2114999954 -0.573422 0.173369
2119999952 -0.556029 0.231173
2124999950 -0.536177 0.278709
2129999948 -0.505195 0.325693
2134999946 -0.475428 0.359583
2139999944 -0.444617 0.395266
2144999942 -0.403576 0.4351
2149999940 -0.366311 0.454766
2154999938 -0.327301 0.479042
2159999936 -0.277513 0.494748
2164999934 -0.234001 0.500848
2169999932 -0.188408 0.513367
2174999930 -0.144437 0.499985
2179999928 -0.10235 0.49493
2184999926 -0.053656 0.479059
2189999924 -0.011523 0.457045
2194999922 0.02073 0.428472
2199999920 0.052249 0.393701
2204999918 0.083441 0.354353
2209999916 0.098591 0.30162
2214999914 0.107699 0.252763
2219999912 0.102637 0.202049
2224999910 0.090985 0.148361
2229999908 0.069145 0.102832
2234999906 0.037809 0.055251
2239999904 -0.008338 0.012629
2244999902 -0.057177 -0.010325
2249999900 -0.112977 -0.039275
2254999898 -0.17338 -0.039889
2259999896 -0.223557 -0.01297
2264999894 -0.292769 -0.026105
2269999892 -0.344209 0.00531
2274999890 -0.390338 0.035647
2279999888 -0.432962 0.07034
2284999886 -0.463319 0.10884
2289999884 -0.489846 0.152116
2294999882 -0.517147 0.195307
2299999880 -0.524752 0.256622
2304999878 -0.539356 0.293545
2309999876 -0.535315 0.339695
2314999874 -0.530171 0.40017
2319999872 -0.527975 0.436667
2324999870 -0.512913 0.483905
2329999868 -0.499714 0.51627
2334999866 -0.485706 0.55234
2339999864 -0.458699 0.601644
2344999862 -0.434571 0.630941
2349999860 -0.418536 0.661916
2354999858 -0.394833 0.674115
2359999856 -0.350655 0.71335
2364999854 -0.33904 0.734993
2369999852 -0.300467 0.754878
2374999850 -0.272712 0.769273
2379999848 -0.246961 0.789563
2384999846 -0.223348 0.804152
2389999844 -0.193251 0.813451
2394999842 -0.16016 0.816233
2399999840 -0.124858 0.822564
2404999838 -0.102093 0.844357
2409999836 -0.086171 0.833549
2414999834 -0.042957 0.849247
2419999832 -0.010735 0.858025
2424999830 0.015397 0.854628
2429999828 0.046037 0.851779
2434999826 0.087118 0.856796
2439999824 0.09873 0.854609
2444999822 0.134642 0.847323
2449999820 0.160447 0.850698
2454999818 0.197746 0.835653
2459999816 0.212883 0.840932
2464999814 0.250824 0.822929
2469999812 0.272641 0.812152
2474999810 0.287759 0.81066
2479999808 0.324323 0.798564
2484999806 0.362897 0.776999
2489999804 0.371466 0.75383
2494999802 0.401841 0.756719
2499999800 0.427894 0.734577
