# HZ S RI R 50
2000000000 -0.58277312 0.8012604799999999
2004999998 -0.5901927200000001 0.8008164
2009999996 -0.5921216 0.8006210800000001
2014999994 -0.5731108400000001 0.8052937599999999
2019999992 -0.5808593599999999 0.7973003999999999
2024999990 -0.5724670400000001 0.8126506399999999
2029999988 -0.5841812 0.8087064000000003
2034999986 -0.575782 0.8092007200000001
2039999984 -0.57508436 0.81311088
2044999982 -0.5761389600000001 0.8118274000000003
2049999980 -0.5672925600000001 0.8165064799999999
2054999978 -0.56974264 0.8143224800000002
2059999976 -0.5684560000000001 0.8107736399999999
2064999974 -0.5771215999999999 0.8148605600000001
2069999972 -0.5696840000000001 0.81688896
2074999970 -0.5699969200000001 0.82285024
2079999968 -0.56665664 0.8188457199999999
2084999966 -0.56896748 0.8198800000000003
2089999964 -0.56264868 0.8228116
2094999962 -0.5665200000000001 0.8151307999999999
2099999960 -0.57153732 0.8207189999999999
2104999958 -0.57022124 0.8222340800000001
2109999956 -0.5563783600000001 0.8169919200000001
2114999954 -0.55820996 0.8302086800000001
2119999952 -0.5631777200000001 0.8237133600000002
2124999950 -0.55989728 0.8301746
2129999948 -0.5588836 0.8188777200000001
2134999946 -0.5493813200000001 0.82788004
2139999944 -0.5434806799999999 0.8345273600000002
2144999942 -0.54395016 0.83840824
2149999940 -0.5488935600000001 0.8255857200000002
2154999938 -0.5467364800000001 0.83169044
2159999936 -0.54280684 0.8437913199999999
2164999934 -0.5469844 0.8354085200000002
2169999932 -0.5334122 0.84207516
2174999930 -0.5527192799999999 0.8350975199999999
2179999928 -0.54317748 0.83385172
2184999926 -0.53221908 0.8438904400000002
2189999924 -0.53557216 0.8420819200000003
2194999922 -0.53223296 0.8453189199999999
2199999920 -0.53451384 0.84783532
2204999918 -0.52965148 0.8440481599999998
2209999916 -0.5272024 0.85221684
2214999914 -0.5293894 0.8494372400000001
2219999912 -0.51672372 0.8508651200000001
2224999910 -0.5297016 0.8475444000000001
2229999908 -0.52619576 0.85203492
2234999906 -0.5201340400000001 0.8510579999999999
2239999904 -0.5259765200000002 0.8468925199999998
2244999902 -0.5168864799999999 0.84727404
2249999900 -0.51421936 0.8543399999999999
2254999898 -0.52177028 0.8510580000000001
2259999896 -0.5170682799999999 0.8481371200000001
2264999894 -0.5182562399999999 0.8622465999999999
2269999892 -0.516456 0.8547600800000001
2274999890 -0.51094424 0.8494183200000002
2279999888 -0.51620796 0.8569468400000001
2284999886 -0.5110241200000001 0.85725488
2289999884 -0.5159252 0.8555602400000002
2294999882 -0.5088748400000002 0.86477264
2299999880 -0.50401944 0.8671764000000002
2304999878 -0.5040570800000002 0.85744464
2309999876 -0.50714844 0.8597436400000001
2314999874 -0.49997867999999995 0.86382568
2319999872 -0.49732511999999995 0.8695389200000001
2324999870 -0.5058652000000001 0.8618387600000003
2329999868 -0.50091256 0.86679376
2334999866 -0.49697475999999996 0.8692040800000003
2339999864 -0.48983171999999997 0.8672310799999999
2344999862 -0.48937403999999995 0.87522064
2349999860 -0.49392568000000014 0.8808059600000001
2354999858 -0.4925918400000001 0.8732093999999998
2359999856 -0.491297 0.8758048800000003
2364999854 -0.48889271999999995 0.8663830399999999
2369999852 -0.47161919999999996 0.86707964
2374999850 -0.4906393600000001 0.87419884
2379999848 -0.4844413999999999 0.8694928399999999
2384999846 -0.48296555999999996 0.8702337600000002
2389999844 -0.4769748 0.8611383600000001
2394999842 -0.48192567999999997 0.86107548
2399999840 -0.48448483999999997 0.8663927200000001
2404999838 -0.47115843999999996 0.8782399200000002
2409999836 -0.48014824000000006 0.88401764
2414999834 -0.47791343999999997 0.8847177999999998
2419999832 -0.45675903999999995 0.8780115999999998
2424999830 -0.45912884000000015 0.8838769600000003
2429999828 -0.4689784 0.8773737200000001
2434999826 -0.47325943999999986 0.8856831199999999
2439999824 -0.4711447599999999 0.88515856
2444999822 -0.45358279999999995 0.8903287200000002
2449999820 -0.4563430400000001 0.8798734400000001
2454999818 -0.45648068 0.8793191200000002
2459999816 -0.45186624 0.8920474799999998
2464999814 -0.45460696000000006 0.8836744799999999
2469999812 -0.4581627200000001 0.8944790400000001
2474999810 -0.4480364400000001 0.8878074800000001
2479999808 -0.44370903999999994 0.8692131999999999
2484999806 -0.4533889599999999 0.8908838800000001
2489999804 -0.4493668 0.8898846799999999
2494999802 -0.4535086 0.8976663200000001
2499999800 -0.44864143999999995 0.8865962399999999
