# HZ S RI R 50
2000000000 -0.8531438800000001 0.5129775999999998
2004999998 -0.8558092400000001 0.5093676
2009999996 -0.8566593599999999 0.5100565999999999
2014999994 -0.8481046400000001 0.51303596
2019999992 -0.8475768800000001 0.51188932
2024999990 -0.8509789600000001 0.51843788
2029999988 -0.8567672000000002 0.5132117199999999
2034999986 -0.8484589600000003 0.5197301999999999
2039999984 -0.8480838 0.52346688
2044999982 -0.8470301600000001 0.5285152399999999
2049999980 -0.8439230400000001 0.53009364
2054999978 -0.8500305599999999 0.5191984399999999
2059999976 -0.8427887600000001 0.523767
2064999974 -0.8506812799999998 0.52496224
2069999972 -0.8487422800000001 0.52246692
2074999970 -0.8512290399999999 0.5269526
2079999968 -0.84778068 0.527285
2084999966 -0.8484492800000001 0.5274902800000001
2089999964 -0.8468500800000002 0.5293928
2094999962 -0.8448078800000001 0.5257417199999999
2099999960 -0.8514918399999999 0.52558172
2104999958 -0.84665372 0.5347860799999999
2109999956 -0.8345977600000001 0.53771412
2114999954 -0.8458837999999997 0.5376894
2119999952 -0.8451267199999998 0.53239208
2124999950 -0.84514188 0.5393444
2129999948 -0.8453542800000002 0.52571464
2134999946 -0.8428774400000001 0.53695708
2139999944 -0.8366739999999999 0.5442130000000001
2144999942 -0.8394401600000002 0.54662668
2149999940 -0.83746084 0.53520576
2154999938 -0.8360024 0.54520604
2159999936 -0.84069424 0.5486414799999999
2164999934 -0.8403712400000001 0.53912172
2169999932 -0.8338822799999999 0.54718264
2174999930 -0.8428162400000001 0.53534188
2179999928 -0.8372124400000001 0.54042228
2184999926 -0.8315413999999998 0.5535663599999999
2189999924 -0.8334466 0.5489874
2194999922 -0.83492988 0.55174976
2199999920 -0.83466884 0.55003788
2204999918 -0.8307504799999998 0.5536171999999999
2209999916 -0.8334140000000001 0.55413188
2214999914 -0.8283718800000003 0.5596342799999999
2219999912 -0.8207238800000002 0.5600511200000001
2224999910 -0.8301814799999998 0.5561660399999999
2229999908 -0.8327961599999998 0.55498284
2234999906 -0.8242109999999998 0.56017424
2239999904 -0.8285098800000001 0.5599859199999999
2244999902 -0.8236322 0.5587596
2249999900 -0.8231147599999997 0.5596531200000001
2254999898 -0.8292796 0.55720596
2259999896 -0.822 0.55699508
2264999894 -0.8290820399999999 0.56661596
2269999892 -0.8226688800000003 0.56788788
2274999890 -0.81955532 0.55982016
2279999888 -0.82977932 0.5625070799999999
2284999886 -0.8192550000000001 0.5692386799999999
2289999884 -0.82489548 0.5609028800000001
2294999882 -0.8222792400000001 0.5702638800000001
2299999880 -0.8233670399999999 0.5740263600000001
2304999878 -0.8180373200000002 0.5687569200000001
2309999876 -0.8151719199999999 0.5738628
2314999874 -0.8174633199999999 0.5738382799999999
2319999872 -0.8194553600000001 0.57327172
2324999870 -0.81787616 0.5709012
2329999868 -0.8176392 0.5736570800000002
2334999866 -0.8165148 0.5759965600000002
2339999864 -0.8087522 0.5757405600000001
2344999862 -0.8177194000000002 0.57900036
2349999860 -0.81770516 0.5861832800000001
2354999858 -0.8165552799999998 0.57846452
2359999856 -0.8144957599999998 0.58221456
2364999854 -0.8135142000000002 0.57413448
2369999852 -0.79765488 0.5831709199999999
2374999850 -0.80869012 0.5863312800000001
2379999848 -0.8079130799999998 0.5802406
2384999846 -0.8068249200000002 0.5799314
2389999844 -0.80575244 0.5719888399999999
2394999842 -0.8045255200000001 0.5760180400000001
2399999840 -0.8066494799999999 0.5801609600000001
2404999838 -0.80046224 0.5937807600000001
2409999836 -0.8115415200000001 0.58611264
2414999834 -0.80906536 0.58746576
2419999832 -0.7933681200000001 0.59413112
2424999830 -0.79862124 0.5959947600000001
2429999828 -0.7935142800000002 0.5958335200000001
2434999826 -0.80834852 0.5935472
2439999824 -0.80650752 0.5905845599999999
2444999822 -0.80252292 0.60030492
2449999820 -0.7967031200000001 0.5956379999999999
2454999818 -0.7884356000000001 0.5984884799999999
2459999816 -0.7966813199999999 0.6022485599999999
2464999814 -0.7975411200000002 0.5980775200000001
2469999812 -0.8018065600000001 0.6010944799999999
2474999810 -0.7931796400000001 0.6057681600000001
2479999808 -0.7809735999999999 0.5980792
2484999806 -0.8014652 0.60752328
2489999804 -0.7957003200000002 0.6039528799999999
2494999802 -0.80280972 0.607737
2499999800 -0.7936806400000002 0.60542588
